(set-info :smt-lib-version 2.6)
(set-logic QF_NIA)
(set-info :source |
     Constraint systems stating that a matrix interpretation is
     compatible with a rewriting system (weakly compatible with
     all rules, strictly compatible with at least one).

     Contributed by Johannes Waldmann at HTKW Leipzig.
   |)
(set-info :category "crafted")
(set-info :status sat)
(declare-fun n0 () Int)
(assert (>= n0 0))
(declare-fun n1 () Int)
(assert (>= n1 0))
(declare-fun n2 () Int)
(assert (>= n2 0))
(declare-fun n3 () Int)
(assert (>= n3 0))
(declare-fun n4 () Int)
(assert (>= n4 0))
(declare-fun n5 () Int)
(assert (>= n5 0))
(declare-fun n6 () Int)
(assert (>= n6 0))
(declare-fun n7 () Int)
(assert (>= n7 0))
(declare-fun n8 () Int)
(assert (>= n8 0))
(declare-fun n9 () Int)
(assert (>= n9 0))
(declare-fun n10 () Int)
(assert (>= n10 0))
(declare-fun n11 () Int)
(assert (>= n11 0))
(declare-fun n12 () Int)
(assert (>= n12 0))
(declare-fun n13 () Int)
(assert (>= n13 0))
(declare-fun n14 () Int)
(assert (>= n14 0))
(declare-fun n15 () Int)
(assert (>= n15 0))
(declare-fun n16 () Int)
(assert (= n16 (* n9 n10)))
(declare-fun n17 () Int)
(assert (= n17 (+ n8 n16)))
(declare-fun n18 () Int)
(assert (= n18 (* n9 n11)))
(declare-fun n19 () Int)
(assert (= n19 (* n11 n10)))
(declare-fun n20 () Int)
(assert (= n20 (+ n10 n19)))
(declare-fun n21 () Int)
(assert (= n21 (* n11 n11)))
(declare-fun n22 () Int)
(assert (= n22 (* n3 n8)))
(declare-fun n23 () Int)
(assert (= n23 (+ n2 n22)))
(declare-fun n24 () Int)
(assert (= n24 (* n3 n9)))
(declare-fun n25 () Int)
(assert (= n25 (* n5 n8)))
(declare-fun n26 () Int)
(assert (= n26 (+ n4 n25)))
(declare-fun n27 () Int)
(assert (= n27 (* n5 n9)))
(declare-fun n28 () Int)
(assert (= n28 (* n13 n8)))
(declare-fun n29 () Int)
(assert (= n29 (+ n12 n28)))
(declare-fun n30 () Int)
(assert (= n30 (* n13 n9)))
(declare-fun n31 () Int)
(assert (= n31 (* n1 n10)))
(declare-fun n32 () Int)
(assert (= n32 (+ n0 n31)))
(declare-fun n33 () Int)
(assert (= n33 (* n1 n11)))
(declare-fun n34 () Int)
(assert (= n34 (* n1 n14)))
(declare-fun n35 () Int)
(assert (= n35 (+ n0 n34)))
(declare-fun n36 () Int)
(assert (= n36 (* n1 n15)))
(declare-fun n37 () Int)
(assert (= n37 (* n3 n17)))
(declare-fun n38 () Int)
(assert (= n38 (+ n2 n37)))
(declare-fun n39 () Int)
(assert (= n39 (* n3 n18)))
(declare-fun n40 () Int)
(assert (= n40 (* n3 n10)))
(declare-fun n41 () Int)
(assert (= n41 (+ n2 n40)))
(declare-fun n42 () Int)
(assert (= n42 (* n3 n11)))
(declare-fun n43 () Int)
(assert (= n43 (* n3 n14)))
(declare-fun n44 () Int)
(assert (= n44 (+ n2 n43)))
(declare-fun n45 () Int)
(assert (= n45 (* n3 n15)))
(declare-fun n46 () Int)
(assert (= n46 (* n5 n17)))
(declare-fun n47 () Int)
(assert (= n47 (+ n4 n46)))
(declare-fun n48 () Int)
(assert (= n48 (* n5 n18)))
(declare-fun n49 () Int)
(assert (= n49 (* n5 n10)))
(declare-fun n50 () Int)
(assert (= n50 (+ n4 n49)))
(declare-fun n51 () Int)
(assert (= n51 (* n5 n11)))
(declare-fun n52 () Int)
(assert (= n52 (* n1 n20)))
(declare-fun n53 () Int)
(assert (= n53 (+ n0 n52)))
(declare-fun n54 () Int)
(assert (= n54 (* n1 n21)))
(declare-fun n55 () Int)
(assert (= n55 (* n54 n10)))
(declare-fun n56 () Int)
(assert (= n56 (+ n53 n55)))
(declare-fun n57 () Int)
(assert (= n57 (* n54 n11)))
(assert (>= n23 n56))
(assert (>= n24 n57))
(declare-fun n58 () Int)
(assert (= n58 (* n3 n20)))
(declare-fun n59 () Int)
(assert (= n59 (+ n2 n58)))
(declare-fun n60 () Int)
(assert (= n60 (* n3 n21)))
(assert (>= n23 n59))
(assert (>= n24 n60))
(assert (>= n23 n41))
(assert (>= n24 n42))
(assert (>= n23 n2))
(assert (>= n24 n3))
(declare-fun n61 () Int)
(assert (= n61 (* n1 n12)))
(declare-fun n62 () Int)
(assert (= n62 (+ n0 n61)))
(declare-fun n63 () Int)
(assert (= n63 (* n1 n13)))
(assert (>= n38 n62))
(assert (>= n39 n63))
(assert (>= n38 n4))
(assert (>= n39 n5))
(assert (>= n26 n32))
(assert (>= n27 n33))
(assert (>= n26 n2))
(assert (>= n27 n3))
(assert (>= n47 n26))
(assert (>= n48 n27))
(assert (>= n47 n0))
(assert (>= n48 n1))
(assert (>= n35 n32))
(assert (>= n36 n33))
(assert (>= n35 n2))
(assert (>= n36 n3))
(declare-fun n64 () Int)
(assert (= n64 (* n5 n12)))
(declare-fun n65 () Int)
(assert (= n65 (+ n4 n64)))
(declare-fun n66 () Int)
(assert (= n66 (* n5 n13)))
(assert (>= n50 n65))
(assert (>= n51 n66))
(assert (>= n50 n4))
(assert (>= n51 n5))
(declare-fun n67 () Int)
(assert (= n67 (* n5 n14)))
(declare-fun n68 () Int)
(assert (= n68 (+ n4 n67)))
(declare-fun n69 () Int)
(assert (= n69 (* n5 n15)))
(assert (>= n68 n4))
(assert (>= n69 n5))
(assert (>= n44 n41))
(assert (>= n45 n42))
(assert (>= n44 n2))
(assert (>= n45 n3))
(declare-fun n70 () Int)
(assert (= n70 (* n11 n8)))
(declare-fun n71 () Int)
(assert (= n71 (+ n10 n70)))
(declare-fun n72 () Int)
(assert (= n72 (* n11 n9)))
(declare-fun n73 () Int)
(assert (= n73 (* n18 n20)))
(declare-fun n74 () Int)
(assert (= n74 (+ n17 n73)))
(declare-fun n75 () Int)
(assert (= n75 (* n18 n21)))
(assert (>= n71 n74))
(assert (>= n72 n75))
(declare-fun n76 () Int)
(assert (= n76 (* n11 n17)))
(declare-fun n77 () Int)
(assert (= n77 (+ n10 n76)))
(declare-fun n78 () Int)
(assert (= n78 (* n11 n18)))
(declare-fun n79 () Int)
(assert (= n79 (* n9 n12)))
(declare-fun n80 () Int)
(assert (= n80 (+ n8 n79)))
(declare-fun n81 () Int)
(assert (= n81 (* n9 n13)))
(assert (>= n77 n80))
(assert (>= n78 n81))
(assert (>= n29 n17))
(assert (>= n30 n18))
(declare-fun n82 () Int)
(assert (= n82 (* n13 n17)))
(declare-fun n83 () Int)
(assert (= n83 (+ n12 n82)))
(declare-fun n84 () Int)
(assert (= n84 (* n13 n18)))
(declare-fun n85 () Int)
(assert (= n85 (* n15 n29)))
(declare-fun n86 () Int)
(assert (= n86 (+ n14 n85)))
(declare-fun n87 () Int)
(assert (= n87 (* n15 n30)))
(assert (>= n83 n86))
(assert (>= n84 n87))
(declare-fun n88 () Int)
(assert (= n88 (* n9 n14)))
(declare-fun n89 () Int)
(assert (= n89 (+ n8 n88)))
(declare-fun n90 () Int)
(assert (= n90 (* n9 n15)))
(assert (>= n89 n17))
(assert (>= n90 n18))
(declare-fun n91 () Int)
(assert (= n91 (* n13 n10)))
(declare-fun n92 () Int)
(assert (= n92 (+ n12 n91)))
(declare-fun n93 () Int)
(assert (= n93 (* n13 n11)))
(declare-fun n94 () Int)
(assert (= n94 (* n13 n12)))
(declare-fun n95 () Int)
(assert (= n95 (+ n12 n94)))
(declare-fun n96 () Int)
(assert (= n96 (* n13 n13)))
(assert (>= n92 n95))
(assert (>= n93 n96))
(declare-fun n97 () Int)
(assert (= n97 (* n13 n14)))
(declare-fun n98 () Int)
(assert (= n98 (+ n12 n97)))
(declare-fun n99 () Int)
(assert (= n99 (* n13 n15)))
(declare-fun n100 () Int)
(assert (= n100 (* n15 n12)))
(declare-fun n101 () Int)
(assert (= n101 (+ n14 n100)))
(declare-fun n102 () Int)
(assert (= n102 (* n15 n13)))
(assert (>= n98 n101))
(assert (>= n99 n102))
(declare-fun n103 () Int)
(assert (= n103 (* n11 n14)))
(declare-fun n104 () Int)
(assert (= n104 (+ n10 n103)))
(declare-fun n105 () Int)
(assert (= n105 (* n11 n15)))
(assert (>= n104 n20))
(assert (>= n105 n21))
(assert (or (> n23 n56) (> n23 n59) (> n23 n41) (> n23 n2) (> n38 n62) (> n38 n4) (> n26 n32) (> n26 n2) (> n47 n26) (> n47 n0) (> n35 n32) (> n35 n2) (> n50 n65) (> n50 n4) (> n68 n4) (> n44 n41) (> n44 n2)))
(assert (<= n0 100))
(assert (<= n1 100))
(assert (<= n10 100))
(assert (<= 0 n100))
(assert (<= n100 100))
(assert (<= 0 n101))
(assert (<= n101 100))
(assert (<= 0 n102))
(assert (<= n102 100))
(assert (<= 0 n103))
(assert (<= n103 100))
(assert (<= 0 n104))
(assert (<= n104 100))
(assert (<= 0 n105))
(assert (<= n105 100))
(assert (<= n11 100))
(assert (<= n12 100))
(assert (<= n13 100))
(assert (<= n14 100))
(assert (<= n15 100))
(assert (<= 0 n16))
(assert (<= n16 100))
(assert (<= 0 n17))
(assert (<= n17 100))
(assert (<= 0 n18))
(assert (<= n18 100))
(assert (<= 0 n19))
(assert (<= n19 100))
(assert (<= n2 100))
(assert (<= 0 n20))
(assert (<= n20 100))
(assert (<= 0 n21))
(assert (<= n21 100))
(assert (<= 0 n22))
(assert (<= n22 100))
(assert (<= 0 n23))
(assert (<= n23 100))
(assert (<= 0 n24))
(assert (<= n24 100))
(assert (<= 0 n25))
(assert (<= n25 100))
(assert (<= 0 n26))
(assert (<= n26 100))
(assert (<= 0 n27))
(assert (<= n27 100))
(assert (<= 0 n28))
(assert (<= n28 100))
(assert (<= 0 n29))
(assert (<= n29 100))
(assert (<= n3 100))
(assert (<= 0 n30))
(assert (<= n30 100))
(assert (<= 0 n31))
(assert (<= n31 100))
(assert (<= 0 n32))
(assert (<= n32 100))
(assert (<= 0 n33))
(assert (<= n33 100))
(assert (<= 0 n34))
(assert (<= n34 100))
(assert (<= 0 n35))
(assert (<= n35 100))
(assert (<= 0 n36))
(assert (<= n36 100))
(assert (<= 0 n37))
(assert (<= n37 100))
(assert (<= 0 n38))
(assert (<= n38 100))
(assert (<= 0 n39))
(assert (<= n39 100))
(assert (<= n4 100))
(assert (<= 0 n40))
(assert (<= n40 100))
(assert (<= 0 n41))
(assert (<= n41 100))
(assert (<= 0 n42))
(assert (<= n42 100))
(assert (<= 0 n43))
(assert (<= n43 100))
(assert (<= 0 n44))
(assert (<= n44 100))
(assert (<= 0 n45))
(assert (<= n45 100))
(assert (<= 0 n46))
(assert (<= n46 100))
(assert (<= 0 n47))
(assert (<= n47 100))
(assert (<= 0 n48))
(assert (<= n48 100))
(assert (<= 0 n49))
(assert (<= n49 100))
(assert (<= n5 100))
(assert (<= 0 n50))
(assert (<= n50 100))
(assert (<= 0 n51))
(assert (<= n51 100))
(assert (<= 0 n52))
(assert (<= n52 100))
(assert (<= 0 n53))
(assert (<= n53 100))
(assert (<= 0 n54))
(assert (<= n54 100))
(assert (<= 0 n55))
(assert (<= n55 100))
(assert (<= 0 n56))
(assert (<= n56 100))
(assert (<= 0 n57))
(assert (<= n57 100))
(assert (<= 0 n58))
(assert (<= n58 100))
(assert (<= 0 n59))
(assert (<= n59 100))
(assert (<= n6 100))
(assert (<= 0 n60))
(assert (<= n60 100))
(assert (<= 0 n61))
(assert (<= n61 100))
(assert (<= 0 n62))
(assert (<= n62 100))
(assert (<= 0 n63))
(assert (<= n63 100))
(assert (<= 0 n64))
(assert (<= n64 100))
(assert (<= 0 n65))
(assert (<= n65 100))
(assert (<= 0 n66))
(assert (<= n66 100))
(assert (<= 0 n67))
(assert (<= n67 100))
(assert (<= 0 n68))
(assert (<= n68 100))
(assert (<= 0 n69))
(assert (<= n69 100))
(assert (<= n7 100))
(assert (<= 0 n70))
(assert (<= n70 100))
(assert (<= 0 n71))
(assert (<= n71 100))
(assert (<= 0 n72))
(assert (<= n72 100))
(assert (<= 0 n73))
(assert (<= n73 100))
(assert (<= 0 n74))
(assert (<= n74 100))
(assert (<= 0 n75))
(assert (<= n75 100))
(assert (<= 0 n76))
(assert (<= n76 100))
(assert (<= 0 n77))
(assert (<= n77 100))
(assert (<= 0 n78))
(assert (<= n78 100))
(assert (<= 0 n79))
(assert (<= n79 100))
(assert (<= n8 100))
(assert (<= 0 n80))
(assert (<= n80 100))
(assert (<= 0 n81))
(assert (<= n81 100))
(assert (<= 0 n82))
(assert (<= n82 100))
(assert (<= 0 n83))
(assert (<= n83 100))
(assert (<= 0 n84))
(assert (<= n84 100))
(assert (<= 0 n85))
(assert (<= n85 100))
(assert (<= 0 n86))
(assert (<= n86 100))
(assert (<= 0 n87))
(assert (<= n87 100))
(assert (<= 0 n88))
(assert (<= n88 100))
(assert (<= 0 n89))
(assert (<= n89 100))
(assert (<= n9 100))
(assert (<= 0 n90))
(assert (<= n90 100))
(assert (<= 0 n91))
(assert (<= n91 100))
(assert (<= 0 n92))
(assert (<= n92 100))
(assert (<= 0 n93))
(assert (<= n93 100))
(assert (<= 0 n94))
(assert (<= n94 100))
(assert (<= 0 n95))
(assert (<= n95 100))
(assert (<= 0 n96))
(assert (<= n96 100))
(assert (<= 0 n97))
(assert (<= n97 100))
(assert (<= 0 n98))
(assert (<= n98 100))
(assert (<= 0 n99))
(assert (<= n99 100))
(check-sat)
(exit)
